c colouring generated by benchmark framework
p edge 275 274
v 1 0
v 2 1
v 3 0
v 4 0
v 5 1
v 6 0
v 7 2
v 8 1
v 9 0
v 10 0
v 11 0
v 12 1
v 13 0
v 14 2
v 15 0
v 16 0
v 17 1
v 18 1
v 19 2
v 20 0
v 21 1
v 22 1
v 23 0
v 24 2
v 25 2
v 26 1
v 27 2
v 28 2
v 29 2
v 30 0
v 31 1
v 32 2
v 33 1
v 34 0
v 35 1
v 36 0
v 37 1
v 38 1
v 39 2
v 40 1
v 41 0
v 42 2
v 43 0
v 44 2
v 45 1
v 46 0
v 47 1
v 48 0
v 49 1
v 50 0
v 51 0
v 52 0
v 53 1
v 54 1
v 55 0
v 56 1
v 57 0
v 58 1
v 59 0
v 60 1
v 61 1
v 62 1
v 63 0
v 64 2
v 65 0
v 66 2
v 67 1
v 68 2
v 69 2
v 70 0
v 71 1
v 72 2
v 73 0
v 74 2
v 75 1
v 76 2
v 77 2
v 78 1
v 79 0
v 80 1
v 81 0
v 82 0
v 83 1
v 84 2
v 85 0
v 86 1
v 87 2
v 88 2
v 89 1
v 90 0
v 91 1
v 92 0
v 93 2
v 94 0
v 95 0
v 96 0
v 97 1
v 98 2
v 99 0
v 100 0
v 101 1
v 102 2
v 103 0
v 104 1
v 105 2
v 106 1
v 107 2
v 108 0
v 109 1
v 110 0
v 111 0
v 112 1
v 113 1
v 114 1
v 115 2
v 116 1
v 117 2
v 118 0
v 119 2
v 120 2
v 121 2
v 122 2
v 123 0
v 124 0
v 125 2
v 126 0
v 127 2
v 128 0
v 129 2
v 130 0
v 131 0
v 132 1
v 133 2
v 134 1
v 135 0
v 136 0
v 137 1
v 138 2
v 139 2
v 140 1
v 141 1
v 142 0
v 143 1
v 144 1
v 145 0
v 146 2
v 147 0
v 148 2
v 149 2
v 150 0
v 151 2
v 152 1
v 153 1
v 154 0
v 155 2
v 156 0
v 157 0
v 158 1
v 159 1
v 160 0
v 161 1
v 162 2
v 163 1
v 164 0
v 165 1
v 166 1
v 167 2
v 168 1
v 169 2
v 170 0
v 171 0
v 172 2
v 173 0
v 174 1
v 175 2
v 176 1
v 177 1
v 178 2
v 179 0
v 180 1
v 181 1
v 182 1
v 183 1
v 184 2
v 185 0
v 186 1
v 187 0
v 188 2
v 189 1
v 190 1
v 191 2
v 192 2
v 193 0
v 194 2
v 195 0
v 196 2
v 197 2
v 198 0
v 199 1
v 200 1
v 201 1
v 202 0
v 203 0
v 204 0
v 205 2
v 206 1
v 207 2
v 208 0
v 209 0
v 210 0
v 211 2
v 212 0
v 213 0
v 214 0
v 215 0
v 216 2
v 217 1
v 218 1
v 219 0
v 220 2
v 221 1
v 222 2
v 223 1
v 224 2
v 225 1
v 226 0
v 227 1
v 228 1
v 229 1
v 230 0
v 231 0
v 232 1
v 233 0
v 234 0
v 235 1
v 236 0
v 237 1
v 238 0
v 239 0
v 240 1
v 241 2
v 242 0
v 243 1
v 244 0
v 245 2
v 246 2
v 247 0
v 248 1
v 249 0
v 250 2
v 251 2
v 252 0
v 253 0
v 254 1
v 255 0
v 256 1
v 257 0
v 258 1
v 259 0
v 260 0
v 261 0
v 262 0
v 263 0
v 264 0
v 265 0
v 266 0
v 267 0
v 268 2
v 269 0
v 270 2
v 271 2
v 272 1
v 273 1
v 274 0
v 275 1
